POSCAR by ASE
 1.0000000000000000
    10.0024999999999995    0.0000000000000000    0.0000000000000000
     0.0000000000000000   12.3537140000000001    0.0000000000000000
     0.0000000000000000    0.0000000000000000   10.6150240000000000
 H   He  Li 
  54  16  64
Direct
  0.1044480000000000  0.2603739999970859  0.4192400000037683
  0.3535310000000000  0.6330110000037237  0.3440320000030146
  0.8540610000000001  0.7604700000016189  0.1062240000022610
  0.1597150000000000  0.5073739999970859  0.9278190000041452
  0.6038220000000001  0.8851770000017809  0.1904080000007537
  0.6051490000000000  0.7588169999969240  0.4286080000007537
  0.3592350000000000  0.5085770000017809  0.5991400000037683
  0.6601980000000001  0.3826970000033998  0.6894419999992464
  0.1045280000000000  0.7577630000014571  0.4291910000015073
  0.1046060000000000  0.8846060000012952  0.1910250000000000
  0.8619140000000001  0.6325470000033998  0.8398330000007537
  0.3533720000000001  0.7609439999987048  0.1065240000022610
  0.8588090000000002  0.5076700000016189  0.6009309999958550
  0.1589400000000000  0.7576640000003237  0.9275669999992464
  0.1599980000000000  0.8841200000016189  0.6887639999966086
  0.3532060000000000  0.5068529999966002  0.1073110000033914
  0.3578950000000001  0.7581410000021046  0.6012490000022610
  0.8550430000000001  0.6329550000024284  0.3440639999966086
  0.8556720000000001  0.5064459999964384  0.1067139999966086
  0.6055210000000000  0.0111312999960983  0.4290200000018841
  0.0971060000000000  0.2667190000027522  0.3919700000018841
  0.8553100000000001  0.0068288800032120  0.1063139999966086
  0.8627010000000001  0.1360070000001619  0.3463620000011305
  0.6055710000000001  0.5121340000019428  0.4275070000030146
  0.6586670000000001  0.0079660700012968  0.9274059999958550
  0.8596260000000001  0.0098352900026664  0.6024719999973623
  0.8638700000000000  0.1329640000003238  0.8407750000000001
  0.6110400000000000  0.2606250000040474  0.4276990000022609
  0.6048840000000001  0.3848130000014571  0.1859440000041451
  0.8559280000000000  0.2587579999990287  0.1073139999966086
  0.6601600000000001  0.2582019999977335  0.9271530000026379
  0.6596930000000001  0.5085669999969240  0.9270509999977391
  0.1039280000000000  0.5031659999980573  0.4287709999996232
  0.3615250000000000  0.6327140000003239  0.8397219999973623
  0.8651390000000001  0.2584680000038855  0.5999650000037683
  0.0813938000000000  0.2846190000027522  0.3256240000022610
  0.3518460000000000  0.0080434899982305  0.1070339999984927
  0.0884557000049988  0.2745410000021046  0.3587980000045219
  0.3584770000000000  0.1334229999982192  0.8397179999969855
  0.8580740000000001  0.7577299999983810  0.6014389999966087
  0.1583510000000000  0.2568819999961146  0.9263309999958549
  0.1601220000000000  0.3821319999961146  0.6871639999966086
  0.3546170000000000  0.2606929999998381  0.1065750000000000
  0.1023390000000000  0.3740550000024284  0.1983669999992463
  0.3573150000000000  0.0100652000038207  0.6025160000015073
  0.6600410000000001  0.8841519999977335  0.6885480000045219
  0.6591760000000000  0.7584149999991906  0.9269540000003769
  0.0919061000049988  0.3422019999977335  0.2265820000030146
  0.1594800000000000  0.0040009100016400  0.9253139999966087
  0.3501340000000000  0.1387420000009714  0.3465440000041451
  0.0824344000000000  0.3134319999961145  0.2630799999981159
  0.0785524000000000  0.2974470000033998  0.2933059999958549
  0.3555440000000000  0.2588869999985429  0.5988209999996232
  0.1066670000000000  0.0147578000024932  0.4307889999966086
  0.1074770000000000  0.1335780000006476  0.6782750000000001
  0.6011970000000000  0.1334079999990286  0.1769440000041451
  0.4141280000000000  0.8828980000022665  0.8509070000030147
  0.6062210000000001  0.6335250000040474  0.6739169999992464
  0.6005720000000001  0.6356610000037236  0.1761780000026378
  0.3523150000000000  0.8841000000000001  0.3535870000011305
  0.9140060000000001  0.3834400000032379  0.8515459999996232
  0.3565730000000000  0.3862009999988667  0.3504400000037683
  0.8474740000000001  0.3837280000006476  0.3518820000030146
  0.1063810000000000  0.6331599999967621  0.6738790000003768
  0.4142010000000000  0.3838819999961145  0.8508009999977391
  0.1026730000000000  0.1293099999967621  0.1746099999962318
  0.8527960000000001  0.8838889999962765  0.3532200000018841
  0.0999394000000000  0.6336900000032378  0.1772400000037682
  0.9128750000000001  0.8820710000004857  0.8506490000022610
  0.6064930000000001  0.1339910000021046  0.6749490000022610
  0.8617430000000001  0.4866280000006476  0.9195669999992464
  0.6545840000000001  0.5332229999982192  0.1064469999973622
  0.8622140000000000  0.3836140000003238  0.7128120000011305
  0.8623060000000001  0.2803130000014571  0.9198889999966086
  0.9044690000000001  0.7795560000012951  0.4201309999958550
  0.6520500000000001  0.7397280000006476  0.1075929999969854
  0.9027630000000001  0.8833250000040473  0.2132160000015073
  0.6585940000000001  0.5307630000014570  0.6039150000037683
  0.8611250000000001  0.9849359999996763  0.9191849999962318
  0.6579580000000000  0.7365500000000000  0.6037190000041451
  0.8614170000000001  0.8827120000025903  0.7116690000041451
  0.6574310000000001  0.6335060000012952  0.8116250000000000
  0.8608820000000000  0.7789000000000000  0.9186410000015074
  0.9504690000000001  0.6331970000033997  0.6718059999958550
  0.5700050000000001  0.8824540000035618  0.8507320000030146
  0.6969500000000001  0.8844250000040473  0.3549580000007537
  0.9061570000000001  0.9869070000001618  0.4208299999981159
  0.6519440000000001  0.6364060000012952  0.3142790000003768
  0.9439990000000000  0.6339570000001619  0.1735570000030146
  0.1498030000000000  0.0258875000020237  0.1008089999984927
  0.9031440000000001  0.4869949999975716  0.4191919999992464
  0.1524940000000000  0.7376620000025904  0.1086099999962318
  0.1497800000000000  0.6341250000040474  0.3158639999966086
  0.1527430000000000  0.5310219999993524  0.1075200000018841
  0.3623670000000001  0.4868830000030760  0.9195400000037683
  0.3652530000000000  0.3853690000027522  0.7113639999966086
  0.3613150000000001  0.2805850000008095  0.9179280000026377
  0.0697672000000000  0.3838439999987048  0.8515860000033914
  0.4105630000000001  0.4901949999975716  0.4182240000022610
  0.4447940000000000  0.6346929999998381  0.1730559999958549
  0.4091440000000001  0.3845490000011332  0.2103129999988695
  0.2032400000000000  0.3907009999988667  0.3485049999981159
  0.4507420000000000  0.1338019999977335  0.6728940000041451
  0.1541180000000000  0.1279669999969240  0.8181559999958549
  0.1638070000000000  0.2369750000040474  0.6178860000033914
  0.1586820000000000  0.0303917999963412  0.6067429999969854
  0.4455460000000001  0.1337739999970859  0.1732400000037683
  0.1548410000000000  0.2336210000004857  0.1062219999973622
  0.1590340000000000  0.1227990000011333  0.3085099999962317
  0.4100280000000001  0.2830750000040474  0.4187370000011305
  0.1586060000000000  0.5308270000017808  0.6032580000007537
  0.1579790000000000  0.7365690000027523  0.6043360000033915
  0.1574730000000000  0.6329389999962765  0.8117240000022610
  0.9018560000000000  0.3828149999991906  0.2128240000022610
  0.8857180000000000  0.2790029999966002  0.4206700000018841
  0.6914830000000001  0.3907120000025903  0.3480769999954781
  0.9511830000000001  0.1331210000004857  0.6736660000015073
  0.6579880000000001  0.1329620000025903  0.8127480000045220
  0.6586310000000001  0.2369410000021046  0.6057530000026378
  0.6583720000000001  0.0309177999992553  0.6045490000022610
  0.9463940000000001  0.1321690000027522  0.1736799999981159
  0.6524460000000001  0.1332610000037236  0.3148370000011305
  0.6535430000000000  0.0296162999969078  0.1079509999977390
  0.3632000000000000  0.9859550000024284  0.9193290000003768
  0.3627790000000000  0.8830830000030760  0.7118870000011305
  0.3618160000000000  0.7797359999996762  0.9188610000033914
  0.0686402000000000  0.8807760000029141  0.8501459999996231
  0.4058670000000000  0.9872680000038855  0.4210410000015073
  0.4019450000000001  0.8842750000040474  0.2132639999966086
  0.4057560000000001  0.7798620000025904  0.4197719999973622
  0.1967220000000000  0.8832270000017809  0.3564519999954782
  0.4504610000000001  0.6336939999987049  0.6717799999981159
  0.5702860000000001  0.3835519999977335  0.8528620000011305
  0.6546810000000001  0.2363280000006476  0.1073099999962318
