POSCAR by ASE
 1.0000000000000000
    10.0024999999999995    0.0000000000000000    0.0000000000000000
     0.0000000000000000   12.3537140000000001    0.0000000000000000
     0.0000000000000000    0.0000000000000000   10.6150240000000000
 H   He  Li 
  54  16  64
Direct
  0.1584900000000000  0.2568330000030760  0.9247790000003769
  0.1593560000000000  0.7573840000019428  0.9260530000026378
  0.1588600000000000  0.3825789999995143  0.6855070000030146
  0.8565080000000000  0.0070340399980119  0.1044620000011305
  0.3551670000000001  0.2586760000029141  0.5968790000003769
  0.6049590000000001  0.8851579999990286  0.1885959999996232
  0.6049780000000000  0.7585990000011333  0.4268839999984927
  0.6055000000000000  0.0113079999990286  0.4273389999966086
  0.8606340000000000  0.6325270000017809  0.8379309999958550
  0.8585020000000001  0.5077690000027522  0.5991059999958550
  0.1037100000000000  0.5038449999975716  0.4266900000037683
  0.3543640000000000  0.5068659999980573  0.1052230000045219
  0.8550370000000000  0.7603169999969239  0.1042419999992464
  0.3534920000000000  0.6328540000035616  0.3417400000037683
  0.1599650000000000  0.5075239999970859  0.9264740000022610
  0.6599660000000001  0.5087330000030760  0.9255509999977392
  0.3575770000000000  0.7580550000024284  0.5994690000041452
  0.3589360000000000  0.5087610000037236  0.5972250000000000
  0.3604260000000000  0.6326159999980573  0.8377559999958549
  0.1586420000000000  0.8840000000000001  0.6873250000000001
  0.1043880000000000  0.7575289999995144  0.4275450000018841
  0.1057820000000000  0.8845050000024285  0.1893559999958550
  0.8547990000000001  0.6328809999972478  0.3418980000045219
  0.3544740000000001  0.7607959999964383  0.1045610000033914
  0.8566570000000001  0.5064869999985430  0.1047469999973622
  0.8572340000000002  0.2587680000038855  0.1052500000000000
  0.8624440000000000  0.1363560000012952  0.3441820000030146
  0.6053570000000000  0.5123640000003238  0.4256650000037683
  0.6590040000000000  0.0079980300013421  0.9259290000003769
  0.6058310000000000  0.3848500000000000  0.1841820000030146
  0.6110590000000000  0.2604280000006476  0.4258750000000000
  0.1066390000000000  0.0148414999974906  0.4293209999996232
  0.1014260000000000  0.0098898400027716  0.4294429999969854
  0.1004420000000000  0.0067043699975570  0.4285280000026378
  0.1019970000000000  0.0057577500013356  0.4277019999954781
  0.1049690000000000  0.0062683099997296  0.4271410000015073
  0.1083280000000000  0.0075626899975182  0.4268940000041451
  0.1103860000000000  0.0083446799966391  0.4268290000003768
  0.1110900000000000  0.0109323999972802  0.4269309999958549
  0.6604940000000000  0.2581270000017808  0.9256379999988695
  0.3529880000000000  0.0081914999974906  0.1050459999996232
  0.8645870000000000  0.2582210000004857  0.5986910000015073
  0.8578390000000000  0.7576359999996762  0.5997030000026379
  0.3506730000000001  0.1390700000016190  0.3435809999958550
  0.8626360000000001  0.1329200000016189  0.8391589999984926
  0.3555920000000000  0.2605750000040474  0.1042179999969854
  0.1041350000000000  0.3748970000033998  0.1964860000033914
  0.6586970000000001  0.3828750000040474  0.6876759999977391
  0.3570790000000000  0.1333599999967621  0.8377540000003768
  0.3571040000000000  0.0101966999964545  0.6006830000007537
  0.8594400000000001  0.0100243000040312  0.6006089999984927
  0.6594160000000001  0.7582649999991906  0.9254030000026379
  0.6587770000000001  0.8841190000027522  0.6868160000015073
  0.1597090000000000  0.0037733700003092  0.9248089999984928
  0.4139710000000000  0.8828420000009715  0.8512150000037683
  0.9127160000000001  0.8819749999959527  0.8509809999958550
  0.6018220000000001  0.1334789999995143  0.1773000000000000
  0.6010470000000000  0.6356400000032378  0.1764660000015073
  0.6059380000000001  0.1339439999987048  0.6754139999966087
  0.9137840000000000  0.3835439999987049  0.8517900000037683
  0.6055840000000001  0.6335529999966003  0.6742349999962318
  0.8476620000000000  0.3836980000022666  0.3519299999981159
  0.3566110000000000  0.3861299999983810  0.3507820000030146
  0.1032990000000000  0.1295700000016189  0.1751330000007537
  0.1057260000000000  0.6331459999964383  0.6742860000033915
  0.1068580000000000  0.1333780000006476  0.6792910000015073
  0.1004350000000000  0.6334690000027522  0.1776889999966086
  0.8530500000000001  0.8838719999993524  0.3535019999954782
  0.4140420000000001  0.3839439999987048  0.8509750000000001
  0.3525460000000000  0.8840680000038855  0.3539589999984927
  0.9030090000000002  0.4868760000029141  0.4203559999958550
  0.8610480000000000  0.8827099999967621  0.7127230000045219
  0.8608050000000002  0.7788610000037236  0.9198320000030146
  0.5698450000000000  0.8824449999975715  0.8517370000011305
  0.9062390000000001  0.9868120000025903  0.4220349999962318
  0.5701080000000001  0.3835799999983810  0.8540370000011305
  0.9033330000000001  0.8832410000021046  0.2142410000015073
  0.9045180000000002  0.7796089999978955  0.4213820000030146
  0.6525660000000000  0.7397949999975716  0.1087679999969854
  0.6972060000000000  0.8844130000014571  0.3561280000026378
  0.8616930000000002  0.3837299999983811  0.7137959999996233
  0.9498110000000001  0.6331959999964383  0.6731290000003769
  0.8616420000000001  0.4866379999974096  0.9207599999962319
  0.6550510000000000  0.5330690000027523  0.1076610000033914
  0.6567700000000001  0.6334920000009714  0.8125969999973622
  0.6573700000000000  0.7366780000006476  0.6049459999996233
  0.6579270000000000  0.5306840000019427  0.6050950000018841
  0.6520920000000001  0.6363920000009714  0.3153080000007537
  0.9444700000000001  0.6339040000035617  0.1746280000026378
  0.8622510000000001  0.2804920000009714  0.9210620000011305
  0.1505810000000000  0.0258948000010361  0.1023780000026378
  0.3619050000000000  0.7797120000025903  0.9201169999992465
  0.8854770000000001  0.2790459999964383  0.4216940000041451
  0.1498220000000000  0.6339149999991905  0.3170990000022609
  0.1532020000000000  0.5304710000004856  0.1091469999973622
  0.3623250000000001  0.4868120000025903  0.9207860000033914
  0.3649880000000000  0.3856379999974097  0.7122309999958550
  0.3612160000000000  0.2806929999998381  0.9189290000003769
  0.0695138000000000  0.3839729999982192  0.8527070000030146
  0.4103650000000001  0.4901589999978954  0.4193849999962317
  0.4094180000000001  0.3845449999975716  0.2113879999988696
  0.4101960000000001  0.2831819999961145  0.4200360000033914
  0.2032440000000000  0.3902830000030760  0.3500309999958550
  0.4501830000000000  0.1336910000021046  0.6743150000037683
  0.1530720000000000  0.1275610000037236  0.8198709999996232
  0.1637680000000000  0.2370229999982192  0.6205870000011305
  0.1580880000000000  0.0303197000027684  0.6082919999992463
  0.4460860000000000  0.1338429999998381  0.1745129999988695
  0.1554900000000000  0.2338439999987048  0.1073030000026378
  0.1591760000000000  0.1233480000022665  0.3097820000030146
  0.1532880000000000  0.7374289999995144  0.1099339999984927
  0.4452220000000000  0.6346700000016190  0.1741959999996232
  0.1579060000000000  0.5307379999974097  0.6044349999962317
  0.1573060000000000  0.7366770000017808  0.6056620000011305
  0.6916370000000001  0.3906610000037236  0.3487209999996232
  0.9505890000000001  0.1331770000017808  0.6749849999962317
  0.6575610000000001  0.1329040000035617  0.8138259999977391
  0.6580110000000000  0.2370400000032379  0.6071309999958550
  0.6578470000000001  0.0308302000030112  0.6057879999988696
  0.9469430000000001  0.1322400000032379  0.1747320000030146
  0.6552750000000001  0.2365019999977335  0.1085360000033914
  0.6527730000000000  0.1333449999975716  0.3159160000015073
  0.9025940000000001  0.3829019999977335  0.2137429999969854
  0.6541230000000000  0.0295668000003885  0.1092150000037683
  0.3622070000000001  0.8830550000024284  0.7129959999996233
  0.0684744999950013  0.8806270000017810  0.8514429999969856
  0.4060720000000001  0.9870560000012952  0.4224179999969854
  0.4024430000000001  0.8842379999974097  0.2143759999977391
  0.4056970000000000  0.7798359999996762  0.4210349999962317
  0.1969480000000000  0.8833009999988668  0.3577980000045219
  0.4498170000000001  0.6337589999978954  0.6729709999996232
  0.1568990000000000  0.6328239999970859  0.8127599999962318
  0.3632370000000000  0.9857379999974097  0.9207589999984928
  0.8611210000000000  0.9847079999990286  0.9205559999958550
